words_hard_train/4153.qaiger
aag 66 16 0 1 50
2
4
12
14
18
22
26
32
34
50
60
70
88
98
106
108
132
6 2 5
8 3 4
10 7 9
16 13 15
20 16 19
24 20 23
28 24 27
30 10 29
36 32 35
38 33 34
40 37 39
42 41 5
44 43 10
46 45 28
48 31 47
52 51 12
54 50 13
56 53 55
58 17 18
62 60 23
64 61 22
66 63 65
68 59 67
72 69 71
74 67 71
76 75 21
78 73 77
80 56 79
82 48 80
84 25 26
86 85 29
90 87 88
92 82 91
94 12 14
96 95 17
100 97 99
102 96 98
104 101 103
110 107 109
112 106 108
114 111 113
116 105 114
118 69 76
120 116 119
122 86 89
124 120 123
126 28 3
128 40 127
130 124 129
132 92 130
i0 2 y1[6]
i1 1 x2[6]
i2 2 y1[0]
i3 2 y1[2]
i4 2 y1[3]
i5 2 y1[4]
i6 2 y1[5]
i7 2 y1[7]
i8 1 x2[7]
i9 1 x2[0]
i10 1 x2[4]
i11 1 x2[3]
i12 1 x2[5]
i13 1 x2[2]
i14 1 x2[1]
i15 2 y1[1]
o0 bool[0]
c
simplified
  ==
    1 x2
    add
      1
      xor
        1
        unary minus
          2 y1
