words_hard_train/4153.qaiger.qdimacs
p cnf 66 151
a 2 35 44 17 49 53 25 30 0
e 1 3 4 5 6 7 8 9 10 11 12 13 14 15 16 18 19 20 21 22 23 24 26 27 28 29 31 32 33 34 36 37 38 39 40 41 42 43 45 46 47 48 50 51 52 54 55 56 57 58 59 60 61 62 63 64 65 66 0
-1 2 3 0
1 -3 0
-2 -3 0
1 -2 4 0
-1 -4 0
2 -4 0
3 4 5 0
-3 -5 0
-4 -5 0
6 7 8 0
-6 -8 0
-7 -8 0
-8 9 10 0
8 -10 0
-9 -10 0
-10 11 12 0
10 -12 0
-11 -12 0
-12 13 14 0
12 -14 0
-13 -14 0
-5 14 15 0
5 -15 0
-14 -15 0
-16 17 18 0
16 -18 0
-17 -18 0
16 -17 19 0
-16 -19 0
17 -19 0
18 19 20 0
-18 -20 0
-19 -20 0
20 2 21 0
-20 -21 0
-2 -21 0
21 -5 22 0
-21 -22 0
5 -22 0
22 -14 23 0
-22 -23 0
14 -23 0
15 23 24 0
-15 -24 0
-23 -24 0
25 -6 26 0
-25 -26 0
6 -26 0
-25 6 27 0
25 -27 0
-6 -27 0
26 27 28 0
-26 -28 0
-27 -28 0
8 -9 29 0
-8 -29 0
9 -29 0
-30 11 31 0
30 -31 0
-11 -31 0
30 -11 32 0
-30 -32 0
11 -32 0
31 32 33 0
-31 -33 0
-32 -33 0
29 33 34 0
-29 -34 0
-33 -34 0
34 35 36 0
-34 -36 0
-35 -36 0
33 35 37 0
-33 -37 0
-35 -37 0
37 10 38 0
-37 -38 0
-10 -38 0
36 38 39 0
-36 -39 0
-38 -39 0
-28 39 40 0
28 -40 0
-39 -40 0
-24 -40 41 0
24 -41 0
40 -41 0
12 -13 42 0
-12 -42 0
13 -42 0
42 14 43 0
-42 -43 0
-14 -43 0
43 -44 45 0
-43 -45 0
44 -45 0
-41 45 46 0
41 -46 0
-45 -46 0
-6 -7 47 0
6 -47 0
7 -47 0
47 8 48 0
-47 -48 0
-8 -48 0
48 49 50 0
-48 -50 0
-49 -50 0
-48 -49 51 0
48 -51 0
49 -51 0
50 51 52 0
-50 -52 0
-51 -52 0
53 54 55 0
-53 -55 0
-54 -55 0
-53 -54 56 0
53 -56 0
54 -56 0
55 56 57 0
-55 -57 0
-56 -57 0
52 -57 58 0
-52 -58 0
57 -58 0
34 -38 59 0
-34 -59 0
38 -59 0
-58 59 60 0
58 -60 0
-59 -60 0
-43 44 61 0
43 -61 0
-44 -61 0
-60 61 62 0
60 -62 0
-61 -62 0
-14 1 63 0
14 -63 0
-1 -63 0
-20 63 64 0
20 -64 0
-63 -64 0
-62 64 65 0
62 -65 0
-64 -65 0
-46 -65 66 0
46 -66 0
65 -66 0
66 0
